\ENCODING=ISO-8859-1
\Problem name: ilog.cplex

Minimize
 obj1: 30 F(0) + 35 F(1) + 20 P(0) + 20 P(1) + 20 P(2) + 20 P(3) + 20 P(4)
       + 20 P(5) + 20 P(6) + 20 P(7) + 20 P(8)
Subject To
 c1:  F(0) + P(0) >= 4
 c2:  F(0) + P(0) + P(1) >= 8
 c3:  F(0) + P(0) + P(1) + P(2) >= 10
 c4:  0.5 F(0) + P(0) + P(1) + P(2) + P(3) >= 12
 c5:  0.5 F(0) + F(1) + P(1) + P(2) + P(3) + P(4) >= 14
 c6:  F(0) + F(1) + P(2) + P(3) + P(4) + P(5) >= 8
 c7:  F(0) + F(1) + P(3) + P(4) + P(5) + P(6) >= 8
 c8:  F(0) + F(1) + P(4) + P(5) + P(6) + P(7) >= 8
 c9:  F(1) + P(5) + P(6) + P(7) + P(8) >= 10
 c10: F(1) + P(6) + P(7) + P(8) >= 14
 c11: F(1) + P(7) + P(8) >= 14
 c12: F(1) + P(8) >= 10
 c13: - F(0) - F(1) >= -12
 c14: - P(0) - P(1) - P(2) - P(3) - P(4) - P(5) - P(6) - P(7) - P(8) >= -20
End
